(set-logic QF_LIA)
(set-info :ran/ran2.smt2)
(set-info :smt-lib-version 2.0)
(declare-fun x1 () Int)
(declare-fun x2 () Int)
(declare-fun x3 () Int)
(declare-fun x4 () Int)
(declare-fun x5 () Int)
(assert (<= (+ (* 0 x1) (* 9 x2) (* (- 9) x3) (* 10 x4) (* 4 x5) ) 146))
(assert (<= (+ (* 3 x1) (* 5 x2) (* (- 9) x3) (* (- 4) x4) (* (- 7) x5) ) 229))
(assert (<= (+ (* (- 5) x1) (* 1 x2) (* (- 3) x3) (* 9 x4) (* (- 9) x5) ) (- 27)))
(assert (<= (+ (* 8 x1) (* (- 10) x2) (* (- 5) x3) (* (- 1) x4) (* (- 1) x5) ) (- 121)))
(assert (<= (+ (* (- 3) x1) (* (- 2) x2) (* 5 x3) (* 2 x4) (* (- 3) x5) ) (- 239)))
(assert (<= (+ (* 7 x1) (* 6 x2) (* 0 x3) (* 6 x4) (* 5 x5) ) 269))
(assert (<= (+ (* (- 4) x1) (* (- 5) x2) (* 7 x3) (* (- 3) x4) (* 1 x5) ) 51))
(assert (<= (+ (* (- 6) x1) (* 4 x2) (* (- 2) x3) (* (- 1) x4) (* 3 x5) ) 227))
(assert (<= (+ (* (- 5) x1) (* 0 x2) (* (- 2) x3) (* 0 x4) (* 10 x5) ) (- 161)))
(assert (<= (+ (* 3 x1) (* (- 6) x2) (* (- 8) x3) (* (- 3) x4) (* 4 x5) ) 254))
(assert (<= (+ (* 1 x1) (* 0 x2) (* 0 x3) (* 0 x4) (* 0 x5) ) 281))
(assert (<= (+ (* (- 1) x1) (* 0 x2) (* 0 x3) (* 0 x4) (* 0 x5) ) 281))
(assert (<= (+ (* 0 x1) (* 1 x2) (* 0 x3) (* 0 x4) (* 0 x5) ) 281))
(assert (<= (+ (* 0 x1) (* (- 1) x2) (* 0 x3) (* 0 x4) (* 0 x5) ) 281))
(assert (<= (+ (* 0 x1) (* 0 x2) (* 1 x3) (* 0 x4) (* 0 x5) ) 281))
(assert (<= (+ (* 0 x1) (* 0 x2) (* (- 1) x3) (* 0 x4) (* 0 x5) ) 281))
(assert (<= (+ (* 0 x1) (* 0 x2) (* 0 x3) (* 1 x4) (* 0 x5) ) 281))
(assert (<= (+ (* 0 x1) (* 0 x2) (* 0 x3) (* (- 1) x4) (* 0 x5) ) 281))
(assert (<= (+ (* 0 x1) (* 0 x2) (* 0 x3) (* 0 x4) (* 1 x5) ) 281))
(assert (<= (+ (* 0 x1) (* 0 x2) (* 0 x3) (* 0 x4) (* (- 1) x5) ) 281))
